language ESSENCE' 1.0

letting setA_Explicit be [1, 2, 4, 10, 12, 13, 14, 15, 16, 18; int(1..10)]
letting setB_Occurrence be
        [false, false, true, false, true, true, true, true, true, false, true, false, false, false, false, false, true,
         false, true, true;
             int(1..20)]
